1 1605
2 1489
3 1353
7 1342
25 1320
27 1317
33 1304
78 1257
825 1243



1 1575
2 1438
3 1430
4 1417
5 1404
6 1367
13 1363
18 1346
21 1324
59 1318
62 1287
75 1272
546 1247



1 1541
2 1469
3 1443
4 1435
5 1434
6 1379
9 1374
10 1364
11 1347
13 1328
20 1294
52 1282
188 1270
189 1257



1 1612
2 1445
3 1402
4 1383
5 1358
6 1350
11 1344
13 1335
18 1330
38 1309
104 1286
142 1285
201 1278
236 1272
266 1236



1 1617
2 1404
5 1379
6 1354
8 1322
27 1310
32 1242



